data;
set K:= K1 K2 K3 K4 K5 K6 K7 K8 K9 K10 K11 K12 K13 K14 K15 ;

set F:= F1 F2 F3 ;

set Q:= Q1 Q2 ;

param T:= 45;
param V: 
	K1  K2  K3  K4  K5  K6  K7  K8  K9  K10 K11 K12 K13 K14 K15 :=
Q1	1   1   1   1   1   1   1   1   1   0   0   0   0   0   0   
Q2	0   0   0   0   0   0   0   0   0   1   1   1   1   1   1   
; # if resorce k is of type q

param TF:= 
K1 6
K2 6
K3 6
K4 6
K5 6
K6 6
K7 6
K8 6
K9 6
K10 12
K11 12
K12 12
K13 12
K14 12
K15 12
; # number of continuous time slots resource can fly

param TR:= 
K1 2
K2 2
K3 2
K4 2
K5 2
K6 2
K7 2
K8 2
K9 2
K10 4
K11 4
K12 4
K13 4
K14 4
K15 4
; #  number of continuous time slots resource k needs to rest between flights

param P:= 
K1 36
K2 36
K3 36
K4 36
K5 36
K6 36
K7 36
K8 36
K9 36
K10 36
K11 36
K12 36
K13 36
K14 36
K15 36
; #  number of continuous time slots a pilot can be present including rest times for resource k 

param N:= 
K1 4
K2 4
K3 4
K4 4
K5 4
K6 4
K7 4
K8 4
K9 4
K10 2
K11 2
K12 2
K13 2
K14 2
K15 2
; # max number of flights resource k can fly in the total time period

param A: 
	K1  K2  K3  K4  K5  K6  K7  K8  K9  K10 K11 K12 K13 K14 K15 :=
1	1   1   1   1   1   1   1   1   1   1   1   1   1   1   1   
2	1   1   1   1   1   1   1   1   1   1   1   1   1   1   1   
3	1   1   1   1   1   1   1   1   1   1   1   1   1   1   1   
4	1   1   1   1   1   1   1   1   1   1   1   1   1   1   1   
5	1   1   1   1   1   1   1   1   1   1   1   1   1   1   1   
6	1   1   1   1   1   1   1   1   1   1   1   1   1   1   1   
7	1   1   1   1   1   1   1   1   1   1   1   1   1   1   1   
8	1   1   1   1   1   1   1   1   1   1   1   1   1   1   1   
9	1   1   1   1   1   1   1   1   1   1   1   1   1   1   1   
10	1   1   1   1   1   1   1   1   1   1   1   1   1   1   1   
11	1   1   1   1   1   1   1   1   1   1   1   1   1   1   1   
12	1   1   1   1   1   1   1   1   1   1   1   1   1   1   1   
13	1   1   1   1   1   1   1   1   1   1   1   1   1   1   1   
14	1   1   1   1   1   1   1   1   1   1   1   1   1   1   1   
15	1   1   1   1   1   1   1   1   1   1   1   1   1   1   1   
16	1   1   1   1   1   1   1   1   1   1   1   1   1   1   1   
17	1   1   1   1   1   1   1   1   1   1   1   1   1   1   1   
18	1   1   1   1   1   1   1   1   1   1   1   1   1   1   1   
19	1   1   1   1   1   1   1   1   1   1   1   1   1   1   1   
20	1   1   1   1   1   1   1   1   1   1   1   1   1   1   1   
21	1   1   1   1   1   1   1   1   1   1   1   1   1   1   1   
22	1   1   1   1   1   1   1   1   1   1   1   1   1   1   1   
23	1   1   1   1   1   1   1   1   1   1   1   1   1   1   1   
24	1   1   1   1   1   1   1   1   1   1   1   1   1   1   1   
25	1   1   1   1   1   1   1   1   1   1   1   1   1   1   1   
26	1   1   1   1   1   1   1   1   1   1   1   1   1   1   1   
27	1   1   1   1   1   1   1   1   1   1   1   1   1   1   1   
28	1   1   1   1   1   1   1   1   1   1   1   1   1   1   1   
29	1   1   1   1   1   1   1   1   1   1   1   1   1   1   1   
30	1   1   1   1   1   1   1   1   1   1   1   1   1   1   1   
31	1   1   1   1   1   1   1   1   1   1   1   1   1   1   1   
32	1   1   1   1   1   1   1   1   1   1   1   1   1   1   1   
33	1   1   1   1   1   1   1   1   1   1   1   1   1   1   1   
34	1   1   1   1   1   1   1   1   1   1   1   1   1   1   1   
35	1   1   1   1   1   1   1   1   1   1   1   1   1   1   1   
36	1   1   1   1   1   1   1   1   1   1   1   1   1   1   1   
37	1   1   1   1   1   1   1   1   1   1   1   1   1   1   1   
38	1   1   1   1   1   1   1   1   1   1   1   1   1   1   1   
39	1   1   1   1   1   1   1   1   1   1   1   1   1   1   1   
40	1   1   1   1   1   1   1   1   1   1   1   1   1   1   1   
41	1   1   1   1   1   1   1   1   1   1   1   1   1   1   1   
42	1   1   1   1   1   1   1   1   1   1   1   1   1   1   1   
43	1   1   1   1   1   1   1   1   1   1   1   1   1   1   1   
44	1   1   1   1   1   1   1   1   1   1   1   1   1   1   1   
45	1   1   1   1   1   1   1   1   1   1   1   1   1   1   1   
; # availability of resorce k in time slot t

param B: 
	F1  F2  F3  :=
Q1	0   0   0   
Q2	0   0   0   
; # if front f requires resources of type q

param U: 
	F1  F2  F3  :=
K1	0   0   0   
K2	0   0   0   
K3	0   0   0   
K4	0   0   0   
K5	0   0   0   
K6	0   0   0   
K7	0   0   0   
K8	0   0   0   
K9	0   0   0   
K10	1   1   1   
K11	0   0   0   
K12	0   0   0   
K13	1   1   1   
K14	0   0   0   
K15	2   2   2   
; # transit time of resource

param C:= 
K1 900
K2 900
K3 900
K4 900
K5 900
K6 1500
K7 1500
K8 4500
K9 4500
K10 5500
K11 5500
K12 5500
K13 5500
K14 5500
K15 5500
; #  water capacity of resource k

param S:= 
F1 9
F2 9
F3 9
; # max number of resources that can fly at front f in the same time slot

param D:= 

[*,*,F1 ]:  K1    K2    K3    K4    K5    K6    K7    K8    K9    K10   K11   K12   K13   K14   K15   :=
1           1.92  1.92  1.92  1.92  1.92  1.92  1.92  1.53  1.53  1.15  1.15  1.15  1.15  1.15  1.15  
2           1.92  1.92  1.92  1.92  1.92  1.92  1.92  1.53  1.53  1.15  1.15  1.15  1.15  1.15  1.15  
3           1.92  1.92  1.92  1.92  1.92  1.92  1.92  1.53  1.53  1.15  1.15  1.15  1.15  1.15  1.15  
4           1.92  1.92  1.92  1.92  1.92  1.92  1.92  1.53  1.53  1.15  1.15  1.15  1.15  1.15  1.15  
5           1.92  1.92  1.92  1.92  1.92  1.92  1.92  1.53  1.53  1.15  1.15  1.15  1.15  1.15  1.15  
6           1.92  1.92  1.92  1.92  1.92  1.92  1.92  1.53  1.53  1.15  1.15  1.15  1.15  1.15  1.15  
7           1.92  1.92  1.92  1.92  1.92  1.92  1.92  1.53  1.53  1.15  1.15  1.15  1.15  1.15  1.15  
8           1.92  1.92  1.92  1.92  1.92  1.92  1.92  1.53  1.53  1.15  1.15  1.15  1.15  1.15  1.15  
9           1.92  1.92  1.92  1.92  1.92  1.92  1.92  1.53  1.53  1.15  1.15  1.15  1.15  1.15  1.15  
10          1.92  1.92  1.92  1.92  1.92  1.92  1.92  1.53  1.53  1.15  1.15  1.15  1.15  1.15  1.15  
11          1.92  1.92  1.92  1.92  1.92  1.92  1.92  1.53  1.53  1.15  1.15  1.15  1.15  1.15  1.15  
12          1.92  1.92  1.92  1.92  1.92  1.92  1.92  1.53  1.53  1.15  1.15  1.15  1.15  1.15  1.15  
13          1.92  1.92  1.92  1.92  1.92  1.92  1.92  1.53  1.53  1.15  1.15  1.15  1.15  1.15  1.15  
14          1.92  1.92  1.92  1.92  1.92  1.92  1.92  1.53  1.53  1.15  1.15  1.15  1.15  1.15  1.15  
15          1.92  1.92  1.92  1.92  1.92  1.92  1.92  1.53  1.53  1.15  1.15  1.15  1.15  1.15  1.15  
16          1.92  1.92  1.92  1.92  1.92  1.92  1.92  1.53  1.53  1.15  1.15  1.15  1.15  1.15  1.15  
17          1.92  1.92  1.92  1.92  1.92  1.92  1.92  1.53  1.53  1.15  1.15  1.15  1.15  1.15  1.15  
18          1.92  1.92  1.92  1.92  1.92  1.92  1.92  1.53  1.53  1.15  1.15  1.15  1.15  1.15  1.15  
19          1.92  1.92  1.92  1.92  1.92  1.92  1.92  1.53  1.53  1.15  1.15  1.15  1.15  1.15  1.15  
20          1.92  1.92  1.92  1.92  1.92  1.92  1.92  1.53  1.53  1.15  1.15  1.15  1.15  1.15  1.15  
21          1.92  1.92  1.92  1.92  1.92  1.92  1.92  1.53  1.53  1.15  1.15  1.15  1.15  1.15  1.15  
22          1.92  1.92  1.92  1.92  1.92  1.92  1.92  1.53  1.53  1.15  1.15  1.15  1.15  1.15  1.15  
23          1.92  1.92  1.92  1.92  1.92  1.92  1.92  1.53  1.53  1.15  1.15  1.15  1.15  1.15  1.15  
24          1.92  1.92  1.92  1.92  1.92  1.92  1.92  1.53  1.53  1.15  1.15  1.15  1.15  1.15  1.15  
25          1.82  1.82  1.82  1.82  1.82  1.82  1.82  1.45  1.45  1.09  1.09  1.09  1.09  1.09  1.09  
26          1.82  1.82  1.82  1.82  1.82  1.82  1.82  1.45  1.45  1.09  1.09  1.09  1.09  1.09  1.09  
27          1.82  1.82  1.82  1.82  1.82  1.82  1.82  1.45  1.45  1.09  1.09  1.09  1.09  1.09  1.09  
28          1.82  1.82  1.82  1.82  1.82  1.82  1.82  1.45  1.45  1.09  1.09  1.09  1.09  1.09  1.09  
29          1.82  1.82  1.82  1.82  1.82  1.82  1.82  1.45  1.45  1.09  1.09  1.09  1.09  1.09  1.09  
30          1.82  1.82  1.82  1.82  1.82  1.82  1.82  1.45  1.45  1.09  1.09  1.09  1.09  1.09  1.09  
31          1.82  1.82  1.82  1.82  1.82  1.82  1.82  1.45  1.45  1.09  1.09  1.09  1.09  1.09  1.09  
32          1.82  1.82  1.82  1.82  1.82  1.82  1.82  1.45  1.45  1.09  1.09  1.09  1.09  1.09  1.09  
33          1.82  1.82  1.82  1.82  1.82  1.82  1.82  1.45  1.45  1.09  1.09  1.09  1.09  1.09  1.09  
34          1.92  1.92  1.92  1.92  1.92  1.92  1.92  1.53  1.53  1.15  1.15  1.15  1.15  1.15  1.15  
35          1.92  1.92  1.92  1.92  1.92  1.92  1.92  1.53  1.53  1.15  1.15  1.15  1.15  1.15  1.15  
36          1.92  1.92  1.92  1.92  1.92  1.92  1.92  1.53  1.53  1.15  1.15  1.15  1.15  1.15  1.15  
37          1.92  1.92  1.92  1.92  1.92  1.92  1.92  1.53  1.53  1.15  1.15  1.15  1.15  1.15  1.15  
38          1.92  1.92  1.92  1.92  1.92  1.92  1.92  1.53  1.53  1.15  1.15  1.15  1.15  1.15  1.15  
39          1.92  1.92  1.92  1.92  1.92  1.92  1.92  1.53  1.53  1.15  1.15  1.15  1.15  1.15  1.15  
40          1.92  1.92  1.92  1.92  1.92  1.92  1.92  1.53  1.53  1.15  1.15  1.15  1.15  1.15  1.15  
41          1.92  1.92  1.92  1.92  1.92  1.92  1.92  1.53  1.53  1.15  1.15  1.15  1.15  1.15  1.15  
42          1.92  1.92  1.92  1.92  1.92  1.92  1.92  1.53  1.53  1.15  1.15  1.15  1.15  1.15  1.15  
43          1.92  1.92  1.92  1.92  1.92  1.92  1.92  1.53  1.53  1.15  1.15  1.15  1.15  1.15  1.15  
44          1.92  1.92  1.92  1.92  1.92  1.92  1.92  1.53  1.53  1.15  1.15  1.15  1.15  1.15  1.15  
45          1.92  1.92  1.92  1.92  1.92  1.92  1.92  1.53  1.53  1.15  1.15  1.15  1.15  1.15  1.15  

[*,*,F2 ]:  K1    K2    K3    K4    K5    K6    K7    K8    K9    K10   K11   K12   K13   K14   K15   :=
1           1.39  1.39  1.39  1.39  1.39  1.39  1.39  1.10  1.10  0.83  0.83  0.83  0.83  0.83  0.83  
2           1.39  1.39  1.39  1.39  1.39  1.39  1.39  1.10  1.10  0.83  0.83  0.83  0.83  0.83  0.83  
3           1.39  1.39  1.39  1.39  1.39  1.39  1.39  1.10  1.10  0.83  0.83  0.83  0.83  0.83  0.83  
4           1.39  1.39  1.39  1.39  1.39  1.39  1.39  1.10  1.10  0.83  0.83  0.83  0.83  0.83  0.83  
5           1.39  1.39  1.39  1.39  1.39  1.39  1.39  1.10  1.10  0.83  0.83  0.83  0.83  0.83  0.83  
6           1.39  1.39  1.39  1.39  1.39  1.39  1.39  1.10  1.10  0.83  0.83  0.83  0.83  0.83  0.83  
7           1.39  1.39  1.39  1.39  1.39  1.39  1.39  1.10  1.10  0.83  0.83  0.83  0.83  0.83  0.83  
8           1.39  1.39  1.39  1.39  1.39  1.39  1.39  1.10  1.10  0.83  0.83  0.83  0.83  0.83  0.83  
9           1.39  1.39  1.39  1.39  1.39  1.39  1.39  1.10  1.10  0.83  0.83  0.83  0.83  0.83  0.83  
10          1.39  1.39  1.39  1.39  1.39  1.39  1.39  1.10  1.10  0.83  0.83  0.83  0.83  0.83  0.83  
11          1.39  1.39  1.39  1.39  1.39  1.39  1.39  1.10  1.10  0.83  0.83  0.83  0.83  0.83  0.83  
12          1.39  1.39  1.39  1.39  1.39  1.39  1.39  1.10  1.10  0.83  0.83  0.83  0.83  0.83  0.83  
13          1.39  1.39  1.39  1.39  1.39  1.39  1.39  1.10  1.10  0.83  0.83  0.83  0.83  0.83  0.83  
14          1.39  1.39  1.39  1.39  1.39  1.39  1.39  1.10  1.10  0.83  0.83  0.83  0.83  0.83  0.83  
15          1.39  1.39  1.39  1.39  1.39  1.39  1.39  1.10  1.10  0.83  0.83  0.83  0.83  0.83  0.83  
16          1.39  1.39  1.39  1.39  1.39  1.39  1.39  1.10  1.10  0.83  0.83  0.83  0.83  0.83  0.83  
17          1.39  1.39  1.39  1.39  1.39  1.39  1.39  1.10  1.10  0.83  0.83  0.83  0.83  0.83  0.83  
18          1.39  1.39  1.39  1.39  1.39  1.39  1.39  1.10  1.10  0.83  0.83  0.83  0.83  0.83  0.83  
19          1.39  1.39  1.39  1.39  1.39  1.39  1.39  1.10  1.10  0.83  0.83  0.83  0.83  0.83  0.83  
20          1.39  1.39  1.39  1.39  1.39  1.39  1.39  1.10  1.10  0.83  0.83  0.83  0.83  0.83  0.83  
21          1.39  1.39  1.39  1.39  1.39  1.39  1.39  1.10  1.10  0.83  0.83  0.83  0.83  0.83  0.83  
22          1.39  1.39  1.39  1.39  1.39  1.39  1.39  1.10  1.10  0.83  0.83  0.83  0.83  0.83  0.83  
23          1.39  1.39  1.39  1.39  1.39  1.39  1.39  1.10  1.10  0.83  0.83  0.83  0.83  0.83  0.83  
24          1.39  1.39  1.39  1.39  1.39  1.39  1.39  1.10  1.10  0.83  0.83  0.83  0.83  0.83  0.83  
25          1.32  1.32  1.32  1.32  1.32  1.32  1.32  1.05  1.05  0.79  0.79  0.79  0.79  0.79  0.79  
26          1.32  1.32  1.32  1.32  1.32  1.32  1.32  1.05  1.05  0.79  0.79  0.79  0.79  0.79  0.79  
27          1.32  1.32  1.32  1.32  1.32  1.32  1.32  1.05  1.05  0.79  0.79  0.79  0.79  0.79  0.79  
28          1.32  1.32  1.32  1.32  1.32  1.32  1.32  1.05  1.05  0.79  0.79  0.79  0.79  0.79  0.79  
29          1.32  1.32  1.32  1.32  1.32  1.32  1.32  1.05  1.05  0.79  0.79  0.79  0.79  0.79  0.79  
30          1.32  1.32  1.32  1.32  1.32  1.32  1.32  1.05  1.05  0.79  0.79  0.79  0.79  0.79  0.79  
31          1.32  1.32  1.32  1.32  1.32  1.32  1.32  1.05  1.05  0.79  0.79  0.79  0.79  0.79  0.79  
32          1.32  1.32  1.32  1.32  1.32  1.32  1.32  1.05  1.05  0.79  0.79  0.79  0.79  0.79  0.79  
33          1.32  1.32  1.32  1.32  1.32  1.32  1.32  1.05  1.05  0.79  0.79  0.79  0.79  0.79  0.79  
34          1.39  1.39  1.39  1.39  1.39  1.39  1.39  1.10  1.10  0.83  0.83  0.83  0.83  0.83  0.83  
35          1.39  1.39  1.39  1.39  1.39  1.39  1.39  1.10  1.10  0.83  0.83  0.83  0.83  0.83  0.83  
36          1.39  1.39  1.39  1.39  1.39  1.39  1.39  1.10  1.10  0.83  0.83  0.83  0.83  0.83  0.83  
37          1.39  1.39  1.39  1.39  1.39  1.39  1.39  1.10  1.10  0.83  0.83  0.83  0.83  0.83  0.83  
38          1.39  1.39  1.39  1.39  1.39  1.39  1.39  1.10  1.10  0.83  0.83  0.83  0.83  0.83  0.83  
39          1.39  1.39  1.39  1.39  1.39  1.39  1.39  1.10  1.10  0.83  0.83  0.83  0.83  0.83  0.83  
40          1.39  1.39  1.39  1.39  1.39  1.39  1.39  1.10  1.10  0.83  0.83  0.83  0.83  0.83  0.83  
41          1.39  1.39  1.39  1.39  1.39  1.39  1.39  1.10  1.10  0.83  0.83  0.83  0.83  0.83  0.83  
42          1.39  1.39  1.39  1.39  1.39  1.39  1.39  1.10  1.10  0.83  0.83  0.83  0.83  0.83  0.83  
43          1.39  1.39  1.39  1.39  1.39  1.39  1.39  1.10  1.10  0.83  0.83  0.83  0.83  0.83  0.83  
44          1.39  1.39  1.39  1.39  1.39  1.39  1.39  1.10  1.10  0.83  0.83  0.83  0.83  0.83  0.83  
45          1.39  1.39  1.39  1.39  1.39  1.39  1.39  1.10  1.10  0.83  0.83  0.83  0.83  0.83  0.83  

[*,*,F3 ]:  K1    K2    K3    K4    K5    K6    K7    K8    K9    K10   K11   K12   K13   K14   K15   :=
1           1.69  1.69  1.69  1.69  1.69  1.69  1.69  1.34  1.34  1.01  1.01  1.01  1.01  1.01  1.01  
2           1.69  1.69  1.69  1.69  1.69  1.69  1.69  1.34  1.34  1.01  1.01  1.01  1.01  1.01  1.01  
3           1.69  1.69  1.69  1.69  1.69  1.69  1.69  1.34  1.34  1.01  1.01  1.01  1.01  1.01  1.01  
4           1.69  1.69  1.69  1.69  1.69  1.69  1.69  1.34  1.34  1.01  1.01  1.01  1.01  1.01  1.01  
5           1.69  1.69  1.69  1.69  1.69  1.69  1.69  1.34  1.34  1.01  1.01  1.01  1.01  1.01  1.01  
6           1.69  1.69  1.69  1.69  1.69  1.69  1.69  1.34  1.34  1.01  1.01  1.01  1.01  1.01  1.01  
7           1.69  1.69  1.69  1.69  1.69  1.69  1.69  1.34  1.34  1.01  1.01  1.01  1.01  1.01  1.01  
8           1.69  1.69  1.69  1.69  1.69  1.69  1.69  1.34  1.34  1.01  1.01  1.01  1.01  1.01  1.01  
9           1.69  1.69  1.69  1.69  1.69  1.69  1.69  1.34  1.34  1.01  1.01  1.01  1.01  1.01  1.01  
10          1.69  1.69  1.69  1.69  1.69  1.69  1.69  1.34  1.34  1.01  1.01  1.01  1.01  1.01  1.01  
11          1.69  1.69  1.69  1.69  1.69  1.69  1.69  1.34  1.34  1.01  1.01  1.01  1.01  1.01  1.01  
12          1.69  1.69  1.69  1.69  1.69  1.69  1.69  1.34  1.34  1.01  1.01  1.01  1.01  1.01  1.01  
13          1.69  1.69  1.69  1.69  1.69  1.69  1.69  1.34  1.34  1.01  1.01  1.01  1.01  1.01  1.01  
14          1.69  1.69  1.69  1.69  1.69  1.69  1.69  1.34  1.34  1.01  1.01  1.01  1.01  1.01  1.01  
15          1.69  1.69  1.69  1.69  1.69  1.69  1.69  1.34  1.34  1.01  1.01  1.01  1.01  1.01  1.01  
16          1.69  1.69  1.69  1.69  1.69  1.69  1.69  1.34  1.34  1.01  1.01  1.01  1.01  1.01  1.01  
17          1.69  1.69  1.69  1.69  1.69  1.69  1.69  1.34  1.34  1.01  1.01  1.01  1.01  1.01  1.01  
18          1.69  1.69  1.69  1.69  1.69  1.69  1.69  1.34  1.34  1.01  1.01  1.01  1.01  1.01  1.01  
19          1.69  1.69  1.69  1.69  1.69  1.69  1.69  1.34  1.34  1.01  1.01  1.01  1.01  1.01  1.01  
20          1.69  1.69  1.69  1.69  1.69  1.69  1.69  1.34  1.34  1.01  1.01  1.01  1.01  1.01  1.01  
21          1.69  1.69  1.69  1.69  1.69  1.69  1.69  1.34  1.34  1.01  1.01  1.01  1.01  1.01  1.01  
22          1.69  1.69  1.69  1.69  1.69  1.69  1.69  1.34  1.34  1.01  1.01  1.01  1.01  1.01  1.01  
23          1.69  1.69  1.69  1.69  1.69  1.69  1.69  1.34  1.34  1.01  1.01  1.01  1.01  1.01  1.01  
24          1.69  1.69  1.69  1.69  1.69  1.69  1.69  1.34  1.34  1.01  1.01  1.01  1.01  1.01  1.01  
25          1.60  1.60  1.60  1.60  1.60  1.60  1.60  1.28  1.28  0.96  0.96  0.96  0.96  0.96  0.96  
26          1.60  1.60  1.60  1.60  1.60  1.60  1.60  1.28  1.28  0.96  0.96  0.96  0.96  0.96  0.96  
27          1.60  1.60  1.60  1.60  1.60  1.60  1.60  1.28  1.28  0.96  0.96  0.96  0.96  0.96  0.96  
28          1.60  1.60  1.60  1.60  1.60  1.60  1.60  1.28  1.28  0.96  0.96  0.96  0.96  0.96  0.96  
29          1.60  1.60  1.60  1.60  1.60  1.60  1.60  1.28  1.28  0.96  0.96  0.96  0.96  0.96  0.96  
30          1.60  1.60  1.60  1.60  1.60  1.60  1.60  1.28  1.28  0.96  0.96  0.96  0.96  0.96  0.96  
31          1.60  1.60  1.60  1.60  1.60  1.60  1.60  1.28  1.28  0.96  0.96  0.96  0.96  0.96  0.96  
32          1.60  1.60  1.60  1.60  1.60  1.60  1.60  1.28  1.28  0.96  0.96  0.96  0.96  0.96  0.96  
33          1.60  1.60  1.60  1.60  1.60  1.60  1.60  1.28  1.28  0.96  0.96  0.96  0.96  0.96  0.96  
34          1.69  1.69  1.69  1.69  1.69  1.69  1.69  1.34  1.34  1.01  1.01  1.01  1.01  1.01  1.01  
35          1.69  1.69  1.69  1.69  1.69  1.69  1.69  1.34  1.34  1.01  1.01  1.01  1.01  1.01  1.01  
36          1.69  1.69  1.69  1.69  1.69  1.69  1.69  1.34  1.34  1.01  1.01  1.01  1.01  1.01  1.01  
37          1.69  1.69  1.69  1.69  1.69  1.69  1.69  1.34  1.34  1.01  1.01  1.01  1.01  1.01  1.01  
38          1.69  1.69  1.69  1.69  1.69  1.69  1.69  1.34  1.34  1.01  1.01  1.01  1.01  1.01  1.01  
39          1.69  1.69  1.69  1.69  1.69  1.69  1.69  1.34  1.34  1.01  1.01  1.01  1.01  1.01  1.01  
40          1.69  1.69  1.69  1.69  1.69  1.69  1.69  1.34  1.34  1.01  1.01  1.01  1.01  1.01  1.01  
41          1.69  1.69  1.69  1.69  1.69  1.69  1.69  1.34  1.34  1.01  1.01  1.01  1.01  1.01  1.01  
42          1.69  1.69  1.69  1.69  1.69  1.69  1.69  1.34  1.34  1.01  1.01  1.01  1.01  1.01  1.01  
43          1.69  1.69  1.69  1.69  1.69  1.69  1.69  1.34  1.34  1.01  1.01  1.01  1.01  1.01  1.01  
44          1.69  1.69  1.69  1.69  1.69  1.69  1.69  1.34  1.34  1.01  1.01  1.01  1.01  1.01  1.01  
45          1.69  1.69  1.69  1.69  1.69  1.69  1.69  1.34  1.34  1.01  1.01  1.01  1.01  1.01  1.01  
; # downloads resource k can do at front f in time t if intermediate time slot

param E:= 

[*,*,F1 ]:  K1    K2    K3    K4    K5    K6    K7    K8    K9    K10   K11   K12   K13   K14   K15   :=
1           0.61  0.15  0.88  0.25  0.56  0.67  0.75  0.15  0.23  0.05  0.34  0.34  0.37  0.06  0.56  
2           0.61  0.15  0.88  0.25  0.56  0.67  0.75  0.15  0.23  0.05  0.34  0.34  0.37  0.06  0.56  
3           0.61  0.15  0.88  0.25  0.56  0.67  0.75  0.15  0.23  0.05  0.34  0.34  0.37  0.06  0.56  
4           0.61  0.15  0.88  0.25  0.56  0.67  0.75  0.15  0.23  0.05  0.34  0.34  0.37  0.06  0.56  
5           0.61  0.15  0.88  0.25  0.56  0.67  0.75  0.15  0.23  0.05  0.34  0.34  0.37  0.06  0.56  
6           0.61  0.15  0.88  0.25  0.56  0.67  0.75  0.15  0.23  0.05  0.34  0.34  0.37  0.06  0.56  
7           0.61  0.15  0.88  0.25  0.56  0.67  0.75  0.15  0.23  0.05  0.34  0.34  0.37  0.06  0.56  
8           0.61  0.15  0.88  0.25  0.56  0.67  0.75  0.15  0.23  0.05  0.34  0.34  0.37  0.06  0.56  
9           0.61  0.15  0.88  0.25  0.56  0.67  0.75  0.15  0.23  0.05  0.34  0.34  0.37  0.06  0.56  
10          0.61  0.15  0.88  0.25  0.56  0.67  0.75  0.15  0.23  0.05  0.34  0.34  0.37  0.06  0.56  
11          0.61  0.15  0.88  0.25  0.56  0.67  0.75  0.15  0.23  0.05  0.34  0.34  0.37  0.06  0.56  
12          0.61  0.15  0.88  0.25  0.56  0.67  0.75  0.15  0.23  0.05  0.34  0.34  0.37  0.06  0.56  
13          0.61  0.15  0.88  0.25  0.56  0.67  0.75  0.15  0.23  0.05  0.34  0.34  0.37  0.06  0.56  
14          0.61  0.15  0.88  0.25  0.56  0.67  0.75  0.15  0.23  0.05  0.34  0.34  0.37  0.06  0.56  
15          0.61  0.15  0.88  0.25  0.56  0.67  0.75  0.15  0.23  0.05  0.34  0.34  0.37  0.06  0.56  
16          0.61  0.15  0.88  0.25  0.56  0.67  0.75  0.15  0.23  0.05  0.34  0.34  0.37  0.06  0.56  
17          0.61  0.15  0.88  0.25  0.56  0.67  0.75  0.15  0.23  0.05  0.34  0.34  0.37  0.06  0.56  
18          0.61  0.15  0.88  0.25  0.56  0.67  0.75  0.15  0.23  0.05  0.34  0.34  0.37  0.06  0.56  
19          0.61  0.15  0.88  0.25  0.56  0.67  0.75  0.15  0.23  0.05  0.34  0.34  0.37  0.06  0.56  
20          0.61  0.15  0.88  0.25  0.56  0.67  0.75  0.15  0.23  0.05  0.34  0.34  0.37  0.06  0.56  
21          0.61  0.15  0.88  0.25  0.56  0.67  0.75  0.15  0.23  0.05  0.34  0.34  0.37  0.06  0.56  
22          0.61  0.15  0.88  0.25  0.56  0.67  0.75  0.15  0.23  0.05  0.34  0.34  0.37  0.06  0.56  
23          0.61  0.15  0.88  0.25  0.56  0.67  0.75  0.15  0.23  0.05  0.34  0.34  0.37  0.06  0.56  
24          0.61  0.15  0.88  0.25  0.56  0.67  0.75  0.15  0.23  0.05  0.34  0.34  0.37  0.06  0.56  
25          0.58  0.15  0.84  0.24  0.53  0.64  0.71  0.15  0.22  0.04  0.33  0.33  0.35  0.05  0.54  
26          0.58  0.15  0.84  0.24  0.53  0.64  0.71  0.15  0.22  0.04  0.33  0.33  0.35  0.05  0.54  
27          0.58  0.15  0.84  0.24  0.53  0.64  0.71  0.15  0.22  0.04  0.33  0.33  0.35  0.05  0.54  
28          0.58  0.15  0.84  0.24  0.53  0.64  0.71  0.15  0.22  0.04  0.33  0.33  0.35  0.05  0.54  
29          0.58  0.15  0.84  0.24  0.53  0.64  0.71  0.15  0.22  0.04  0.33  0.33  0.35  0.05  0.54  
30          0.58  0.15  0.84  0.24  0.53  0.64  0.71  0.15  0.22  0.04  0.33  0.33  0.35  0.05  0.54  
31          0.58  0.15  0.84  0.24  0.53  0.64  0.71  0.15  0.22  0.04  0.33  0.33  0.35  0.05  0.54  
32          0.58  0.15  0.84  0.24  0.53  0.64  0.71  0.15  0.22  0.04  0.33  0.33  0.35  0.05  0.54  
33          0.58  0.15  0.84  0.24  0.53  0.64  0.71  0.15  0.22  0.04  0.33  0.33  0.35  0.05  0.54  
34          0.61  0.15  0.88  0.25  0.56  0.67  0.75  0.15  0.23  0.05  0.34  0.34  0.37  0.06  0.56  
35          0.61  0.15  0.88  0.25  0.56  0.67  0.75  0.15  0.23  0.05  0.34  0.34  0.37  0.06  0.56  
36          0.61  0.15  0.88  0.25  0.56  0.67  0.75  0.15  0.23  0.05  0.34  0.34  0.37  0.06  0.56  
37          0.61  0.15  0.88  0.25  0.56  0.67  0.75  0.15  0.23  0.05  0.34  0.34  0.37  0.06  0.56  
38          0.61  0.15  0.88  0.25  0.56  0.67  0.75  0.15  0.23  0.05  0.34  0.34  0.37  0.06  0.56  
39          0.61  0.15  0.88  0.25  0.56  0.67  0.75  0.15  0.23  0.05  0.34  0.34  0.37  0.06  0.56  
40          0.61  0.15  0.88  0.25  0.56  0.67  0.75  0.15  0.23  0.05  0.34  0.34  0.37  0.06  0.56  
41          0.61  0.15  0.88  0.25  0.56  0.67  0.75  0.15  0.23  0.05  0.34  0.34  0.37  0.06  0.56  
42          0.61  0.15  0.88  0.25  0.56  0.67  0.75  0.15  0.23  0.05  0.34  0.34  0.37  0.06  0.56  
43          0.61  0.15  0.88  0.25  0.56  0.67  0.75  0.15  0.23  0.05  0.34  0.34  0.37  0.06  0.56  
44          0.61  0.15  0.88  0.25  0.56  0.67  0.75  0.15  0.23  0.05  0.34  0.34  0.37  0.06  0.56  
45          0.61  0.15  0.88  0.25  0.56  0.67  0.75  0.15  0.23  0.05  0.34  0.34  0.37  0.06  0.56  

[*,*,F2 ]:  K1    K2    K3    K4    K5    K6    K7    K8    K9    K10   K11   K12   K13   K14   K15   :=
1           0.33  0.04  0.62  0.19  0.47  0.54  0.53  0.13  0.15  0.07  0.25  0.30  0.23  0.06  0.37  
2           0.33  0.04  0.62  0.19  0.47  0.54  0.53  0.13  0.15  0.07  0.25  0.30  0.23  0.06  0.37  
3           0.33  0.04  0.62  0.19  0.47  0.54  0.53  0.13  0.15  0.07  0.25  0.30  0.23  0.06  0.37  
4           0.33  0.04  0.62  0.19  0.47  0.54  0.53  0.13  0.15  0.07  0.25  0.30  0.23  0.06  0.37  
5           0.33  0.04  0.62  0.19  0.47  0.54  0.53  0.13  0.15  0.07  0.25  0.30  0.23  0.06  0.37  
6           0.33  0.04  0.62  0.19  0.47  0.54  0.53  0.13  0.15  0.07  0.25  0.30  0.23  0.06  0.37  
7           0.33  0.04  0.62  0.19  0.47  0.54  0.53  0.13  0.15  0.07  0.25  0.30  0.23  0.06  0.37  
8           0.33  0.04  0.62  0.19  0.47  0.54  0.53  0.13  0.15  0.07  0.25  0.30  0.23  0.06  0.37  
9           0.33  0.04  0.62  0.19  0.47  0.54  0.53  0.13  0.15  0.07  0.25  0.30  0.23  0.06  0.37  
10          0.33  0.04  0.62  0.19  0.47  0.54  0.53  0.13  0.15  0.07  0.25  0.30  0.23  0.06  0.37  
11          0.33  0.04  0.62  0.19  0.47  0.54  0.53  0.13  0.15  0.07  0.25  0.30  0.23  0.06  0.37  
12          0.33  0.04  0.62  0.19  0.47  0.54  0.53  0.13  0.15  0.07  0.25  0.30  0.23  0.06  0.37  
13          0.33  0.04  0.62  0.19  0.47  0.54  0.53  0.13  0.15  0.07  0.25  0.30  0.23  0.06  0.37  
14          0.33  0.04  0.62  0.19  0.47  0.54  0.53  0.13  0.15  0.07  0.25  0.30  0.23  0.06  0.37  
15          0.33  0.04  0.62  0.19  0.47  0.54  0.53  0.13  0.15  0.07  0.25  0.30  0.23  0.06  0.37  
16          0.33  0.04  0.62  0.19  0.47  0.54  0.53  0.13  0.15  0.07  0.25  0.30  0.23  0.06  0.37  
17          0.33  0.04  0.62  0.19  0.47  0.54  0.53  0.13  0.15  0.07  0.25  0.30  0.23  0.06  0.37  
18          0.33  0.04  0.62  0.19  0.47  0.54  0.53  0.13  0.15  0.07  0.25  0.30  0.23  0.06  0.37  
19          0.33  0.04  0.62  0.19  0.47  0.54  0.53  0.13  0.15  0.07  0.25  0.30  0.23  0.06  0.37  
20          0.33  0.04  0.62  0.19  0.47  0.54  0.53  0.13  0.15  0.07  0.25  0.30  0.23  0.06  0.37  
21          0.33  0.04  0.62  0.19  0.47  0.54  0.53  0.13  0.15  0.07  0.25  0.30  0.23  0.06  0.37  
22          0.33  0.04  0.62  0.19  0.47  0.54  0.53  0.13  0.15  0.07  0.25  0.30  0.23  0.06  0.37  
23          0.33  0.04  0.62  0.19  0.47  0.54  0.53  0.13  0.15  0.07  0.25  0.30  0.23  0.06  0.37  
24          0.33  0.04  0.62  0.19  0.47  0.54  0.53  0.13  0.15  0.07  0.25  0.30  0.23  0.06  0.37  
25          0.32  0.04  0.59  0.18  0.45  0.51  0.50  0.13  0.15  0.07  0.24  0.28  0.22  0.06  0.35  
26          0.32  0.04  0.59  0.18  0.45  0.51  0.50  0.13  0.15  0.07  0.24  0.28  0.22  0.06  0.35  
27          0.32  0.04  0.59  0.18  0.45  0.51  0.50  0.13  0.15  0.07  0.24  0.28  0.22  0.06  0.35  
28          0.32  0.04  0.59  0.18  0.45  0.51  0.50  0.13  0.15  0.07  0.24  0.28  0.22  0.06  0.35  
29          0.32  0.04  0.59  0.18  0.45  0.51  0.50  0.13  0.15  0.07  0.24  0.28  0.22  0.06  0.35  
30          0.32  0.04  0.59  0.18  0.45  0.51  0.50  0.13  0.15  0.07  0.24  0.28  0.22  0.06  0.35  
31          0.32  0.04  0.59  0.18  0.45  0.51  0.50  0.13  0.15  0.07  0.24  0.28  0.22  0.06  0.35  
32          0.32  0.04  0.59  0.18  0.45  0.51  0.50  0.13  0.15  0.07  0.24  0.28  0.22  0.06  0.35  
33          0.32  0.04  0.59  0.18  0.45  0.51  0.50  0.13  0.15  0.07  0.24  0.28  0.22  0.06  0.35  
34          0.33  0.04  0.62  0.19  0.47  0.54  0.53  0.13  0.15  0.07  0.25  0.30  0.23  0.06  0.37  
35          0.33  0.04  0.62  0.19  0.47  0.54  0.53  0.13  0.15  0.07  0.25  0.30  0.23  0.06  0.37  
36          0.33  0.04  0.62  0.19  0.47  0.54  0.53  0.13  0.15  0.07  0.25  0.30  0.23  0.06  0.37  
37          0.33  0.04  0.62  0.19  0.47  0.54  0.53  0.13  0.15  0.07  0.25  0.30  0.23  0.06  0.37  
38          0.33  0.04  0.62  0.19  0.47  0.54  0.53  0.13  0.15  0.07  0.25  0.30  0.23  0.06  0.37  
39          0.33  0.04  0.62  0.19  0.47  0.54  0.53  0.13  0.15  0.07  0.25  0.30  0.23  0.06  0.37  
40          0.33  0.04  0.62  0.19  0.47  0.54  0.53  0.13  0.15  0.07  0.25  0.30  0.23  0.06  0.37  
41          0.33  0.04  0.62  0.19  0.47  0.54  0.53  0.13  0.15  0.07  0.25  0.30  0.23  0.06  0.37  
42          0.33  0.04  0.62  0.19  0.47  0.54  0.53  0.13  0.15  0.07  0.25  0.30  0.23  0.06  0.37  
43          0.33  0.04  0.62  0.19  0.47  0.54  0.53  0.13  0.15  0.07  0.25  0.30  0.23  0.06  0.37  
44          0.33  0.04  0.62  0.19  0.47  0.54  0.53  0.13  0.15  0.07  0.25  0.30  0.23  0.06  0.37  
45          0.33  0.04  0.62  0.19  0.47  0.54  0.53  0.13  0.15  0.07  0.25  0.30  0.23  0.06  0.37  

[*,*,F3 ]:  K1    K2    K3    K4    K5    K6    K7    K8    K9    K10   K11   K12   K13   K14   K15   :=
1           0.54  0.20  0.61  0.29  0.61  0.64  0.61  0.04  0.19  0.05  0.31  0.38  0.28  0.05  0.47  
2           0.54  0.20  0.61  0.29  0.61  0.64  0.61  0.04  0.19  0.05  0.31  0.38  0.28  0.05  0.47  
3           0.54  0.20  0.61  0.29  0.61  0.64  0.61  0.04  0.19  0.05  0.31  0.38  0.28  0.05  0.47  
4           0.54  0.20  0.61  0.29  0.61  0.64  0.61  0.04  0.19  0.05  0.31  0.38  0.28  0.05  0.47  
5           0.54  0.20  0.61  0.29  0.61  0.64  0.61  0.04  0.19  0.05  0.31  0.38  0.28  0.05  0.47  
6           0.54  0.20  0.61  0.29  0.61  0.64  0.61  0.04  0.19  0.05  0.31  0.38  0.28  0.05  0.47  
7           0.54  0.20  0.61  0.29  0.61  0.64  0.61  0.04  0.19  0.05  0.31  0.38  0.28  0.05  0.47  
8           0.54  0.20  0.61  0.29  0.61  0.64  0.61  0.04  0.19  0.05  0.31  0.38  0.28  0.05  0.47  
9           0.54  0.20  0.61  0.29  0.61  0.64  0.61  0.04  0.19  0.05  0.31  0.38  0.28  0.05  0.47  
10          0.54  0.20  0.61  0.29  0.61  0.64  0.61  0.04  0.19  0.05  0.31  0.38  0.28  0.05  0.47  
11          0.54  0.20  0.61  0.29  0.61  0.64  0.61  0.04  0.19  0.05  0.31  0.38  0.28  0.05  0.47  
12          0.54  0.20  0.61  0.29  0.61  0.64  0.61  0.04  0.19  0.05  0.31  0.38  0.28  0.05  0.47  
13          0.54  0.20  0.61  0.29  0.61  0.64  0.61  0.04  0.19  0.05  0.31  0.38  0.28  0.05  0.47  
14          0.54  0.20  0.61  0.29  0.61  0.64  0.61  0.04  0.19  0.05  0.31  0.38  0.28  0.05  0.47  
15          0.54  0.20  0.61  0.29  0.61  0.64  0.61  0.04  0.19  0.05  0.31  0.38  0.28  0.05  0.47  
16          0.54  0.20  0.61  0.29  0.61  0.64  0.61  0.04  0.19  0.05  0.31  0.38  0.28  0.05  0.47  
17          0.54  0.20  0.61  0.29  0.61  0.64  0.61  0.04  0.19  0.05  0.31  0.38  0.28  0.05  0.47  
18          0.54  0.20  0.61  0.29  0.61  0.64  0.61  0.04  0.19  0.05  0.31  0.38  0.28  0.05  0.47  
19          0.54  0.20  0.61  0.29  0.61  0.64  0.61  0.04  0.19  0.05  0.31  0.38  0.28  0.05  0.47  
20          0.54  0.20  0.61  0.29  0.61  0.64  0.61  0.04  0.19  0.05  0.31  0.38  0.28  0.05  0.47  
21          0.54  0.20  0.61  0.29  0.61  0.64  0.61  0.04  0.19  0.05  0.31  0.38  0.28  0.05  0.47  
22          0.54  0.20  0.61  0.29  0.61  0.64  0.61  0.04  0.19  0.05  0.31  0.38  0.28  0.05  0.47  
23          0.54  0.20  0.61  0.29  0.61  0.64  0.61  0.04  0.19  0.05  0.31  0.38  0.28  0.05  0.47  
24          0.54  0.20  0.61  0.29  0.61  0.64  0.61  0.04  0.19  0.05  0.31  0.38  0.28  0.05  0.47  
25          0.51  0.19  0.58  0.27  0.58  0.61  0.58  0.04  0.18  0.05  0.30  0.36  0.27  0.05  0.45  
26          0.51  0.19  0.58  0.27  0.58  0.61  0.58  0.04  0.18  0.05  0.30  0.36  0.27  0.05  0.45  
27          0.51  0.19  0.58  0.27  0.58  0.61  0.58  0.04  0.18  0.05  0.30  0.36  0.27  0.05  0.45  
28          0.51  0.19  0.58  0.27  0.58  0.61  0.58  0.04  0.18  0.05  0.30  0.36  0.27  0.05  0.45  
29          0.51  0.19  0.58  0.27  0.58  0.61  0.58  0.04  0.18  0.05  0.30  0.36  0.27  0.05  0.45  
30          0.51  0.19  0.58  0.27  0.58  0.61  0.58  0.04  0.18  0.05  0.30  0.36  0.27  0.05  0.45  
31          0.51  0.19  0.58  0.27  0.58  0.61  0.58  0.04  0.18  0.05  0.30  0.36  0.27  0.05  0.45  
32          0.51  0.19  0.58  0.27  0.58  0.61  0.58  0.04  0.18  0.05  0.30  0.36  0.27  0.05  0.45  
33          0.51  0.19  0.58  0.27  0.58  0.61  0.58  0.04  0.18  0.05  0.30  0.36  0.27  0.05  0.45  
34          0.54  0.20  0.61  0.29  0.61  0.64  0.61  0.04  0.19  0.05  0.31  0.38  0.28  0.05  0.47  
35          0.54  0.20  0.61  0.29  0.61  0.64  0.61  0.04  0.19  0.05  0.31  0.38  0.28  0.05  0.47  
36          0.54  0.20  0.61  0.29  0.61  0.64  0.61  0.04  0.19  0.05  0.31  0.38  0.28  0.05  0.47  
37          0.54  0.20  0.61  0.29  0.61  0.64  0.61  0.04  0.19  0.05  0.31  0.38  0.28  0.05  0.47  
38          0.54  0.20  0.61  0.29  0.61  0.64  0.61  0.04  0.19  0.05  0.31  0.38  0.28  0.05  0.47  
39          0.54  0.20  0.61  0.29  0.61  0.64  0.61  0.04  0.19  0.05  0.31  0.38  0.28  0.05  0.47  
40          0.54  0.20  0.61  0.29  0.61  0.64  0.61  0.04  0.19  0.05  0.31  0.38  0.28  0.05  0.47  
41          0.54  0.20  0.61  0.29  0.61  0.64  0.61  0.04  0.19  0.05  0.31  0.38  0.28  0.05  0.47  
42          0.54  0.20  0.61  0.29  0.61  0.64  0.61  0.04  0.19  0.05  0.31  0.38  0.28  0.05  0.47  
43          0.54  0.20  0.61  0.29  0.61  0.64  0.61  0.04  0.19  0.05  0.31  0.38  0.28  0.05  0.47  
44          0.54  0.20  0.61  0.29  0.61  0.64  0.61  0.04  0.19  0.05  0.31  0.38  0.28  0.05  0.47  
45          0.54  0.20  0.61  0.29  0.61  0.64  0.61  0.04  0.19  0.05  0.31  0.38  0.28  0.05  0.47  
; # downloads resource k can do at front f in time t if starting or ending flight

param W: 
	F1        F2        F3        :=
1	1981.46   990.73    990.73    
2	7925.84   3962.92   3962.92   
3	7925.84   3962.92   3962.92   
4	7925.84   3962.92   3962.92   
5	7925.84   3962.92   3962.92   
6	7925.84   3962.92   3962.92   
7	7925.84   3962.92   3962.92   
8	7925.84   3962.92   3962.92   
9	7925.84   3962.92   3962.92   
10	7925.84   3962.92   3962.92   
11	7925.84   3962.92   3962.92   
12	7925.84   3962.92   3962.92   
13	7925.84   3962.92   3962.92   
14	7925.84   3962.92   3962.92   
15	7925.84   3962.92   3962.92   
16	7925.84   3962.92   3962.92   
17	7925.84   3962.92   3962.92   
18	7925.84   3962.92   3962.92   
19	3522.60   1761.30   1761.30   
20	3522.60   1761.30   1761.30   
21	3522.60   1761.30   1761.30   
22	3522.60   1761.30   1761.30   
23	3522.60   1761.30   1761.30   
24	3522.60   1761.30   1761.30   
25	3522.60   1761.30   1761.30   
26	3522.60   1761.30   1761.30   
27	3522.60   1761.30   1761.30   
28	3522.60   1761.30   1761.30   
29	3522.60   1761.30   1761.30   
30	3522.60   1761.30   1761.30   
31	3522.60   1761.30   1761.30   
32	3522.60   1761.30   1761.30   
33	3522.60   1761.30   1761.30   
34	3522.60   1761.30   1761.30   
35	3522.60   1761.30   1761.30   
36	3522.60   1761.30   1761.30   
37	3522.60   1761.30   1761.30   
38	3522.60   1761.30   1761.30   
39	3522.60   1761.30   1761.30   
40	3522.60   1761.30   1761.30   
41	3522.60   1761.30   1761.30   
42	3522.60   1761.30   1761.30   
43	3522.60   1761.30   1761.30   
44	3522.60   1761.30   1761.30   
45	880.65    440.32    440.32    
; # water needed at front f in time slot t

param M := 100000000; 

param a1:= 10000000;

param a2:= 100;

param a3:= 0.0001;
